20
90.0
0 19 9.16 8.94
1 18 8.27 9.73
2 17 8.94 11.15
3 16 9.0 11.11
4 15 11.85 10.33
5 14 12.67 11.04
6 13 13.25 11.5
7 12 12.35 10.76
8 11 13.25 11.5
9 10 13.25 11.5
10 9 4.62 6.1
11 8 2.04 7.52
12 7 2.79 10.64
13 6 1.9 10.46
14 5 9.05 7.99
15 4 11.22 9.89
16 3 13.25 11.5
17 2 7.88 7.06
18 1 13.25 11.5
